63
1 0 13
2 0 9
2 1 9
3 0 4
3 1 2
3 2 3
4 0 14
4 1 6
4 2 14
4 3 10
5 0 7
5 1 1
5 2 7
5 3 13
5 4 11
6 0 15
6 1 3
6 2 10
6 3 8
6 4 15
6 5 11
7 0 2
7 1 1
7 2 8
7 3 4
7 4 10
7 5 14
7 6 5
8 0 14
8 1 8
8 2 7
8 3 7
8 4 2
8 5 1
8 6 15
8 7 4
9 0 6
9 1 12
9 2 4
9 3 12
9 4 15
9 5 4
9 6 6
9 7 4
9 8 9
10 0 1
10 1 13
10 2 15
10 3 13
10 4 15
10 5 9
10 6 7
10 7 13
10 8 6
10 9 15
11 0 13
11 1 14
11 2 9
11 3 10
11 4 3
11 5 8
11 6 13
11 7 15
11 8 6
11 9 6
11 10 6
12 0 1
12 1 10
12 2 3
12 3 4
12 4 6
12 5 2
12 6 5
12 7 2
12 8 3
12 9 4
12 10 15
12 11 5
13 0 13
13 1 4
13 2 10
13 3 6
13 4 3
13 5 4
13 6 7
13 7 14
13 8 4
13 9 12
13 10 9
13 11 4
13 12 15
14 0 9
14 1 1
14 2 8
14 3 8
14 4 5
14 5 9
14 6 11
14 7 15
14 8 4
14 9 2
14 10 13
14 11 15
14 12 3
14 13 15
15 0 12
15 1 14
15 2 14
15 3 3
15 4 4
15 5 14
15 6 10
15 7 1
15 8 14
15 9 6
15 10 4
15 11 1
15 12 15
15 13 12
15 14 2
16 0 2
16 1 15
16 2 2
16 3 12
16 4 7
16 5 3
16 6 13
16 7 10
16 8 4
16 9 3
16 10 9
16 11 3
16 12 8
16 13 10
16 14 5
16 15 4
17 0 2
17 1 2
17 2 3
17 3 3
17 4 10
17 5 12
17 6 10
17 7 13
17 8 14
17 9 11
17 10 3
17 11 2
17 12 10
17 13 11
17 14 4
17 15 9
17 16 7
18 0 7
18 1 13
18 2 9
18 3 10
18 4 13
18 5 2
18 6 2
18 7 7
18 8 10
18 9 7
18 10 15
18 11 11
18 12 1
18 13 7
18 14 4
18 15 9
18 16 8
18 17 11
19 0 13
19 1 4
19 2 6
19 3 12
19 4 3
19 5 14
19 6 8
19 7 9
19 8 2
19 9 9
19 10 3
19 11 2
19 12 11
19 13 6
19 14 6
19 15 2
19 16 14
19 17 2
19 18 8
20 0 13
20 1 5
20 2 2
20 3 9
20 4 6
20 5 11
20 6 2
20 7 6
20 8 5
20 9 14
20 10 8
20 11 13
20 12 15
20 13 3
20 14 1
20 15 4
20 16 7
20 17 3
20 18 5
20 19 3
21 0 7
21 1 9
21 2 15
21 3 7
21 4 13
21 5 3
21 6 14
21 7 15
21 8 14
21 9 8
21 10 5
21 11 1
21 12 15
21 13 4
21 14 1
21 15 6
21 16 3
21 17 2
21 18 2
21 19 9
21 20 15
22 0 12
22 1 14
22 2 10
22 3 1
22 4 8
22 5 9
22 6 4
22 7 8
22 8 2
22 9 14
22 10 10
22 11 3
22 12 10
22 13 10
22 14 14
22 15 1
22 16 14
22 17 5
22 18 14
22 19 6
22 20 9
22 21 12
23 0 11
23 1 2
23 2 3
23 3 4
23 4 3
23 5 1
23 6 15
23 7 12
23 8 3
23 9 10
23 10 8
23 11 12
23 12 11
23 13 15
23 14 15
23 15 3
23 16 6
23 17 9
23 18 11
23 19 2
23 20 4
23 21 5
23 22 15
24 0 7
24 1 4
24 2 10
24 3 5
24 4 7
24 5 14
24 6 7
24 7 6
24 8 4
24 9 13
24 10 14
24 11 1
24 12 13
24 13 9
24 14 10
24 15 12
24 16 8
24 17 6
24 18 15
24 19 15
24 20 15
24 21 8
24 22 11
24 23 5
25 0 14
25 1 10
25 2 1
25 3 1
25 4 3
25 5 9
25 6 3
25 7 2
25 8 2
25 9 14
25 10 15
25 11 3
25 12 10
25 13 2
25 14 5
25 15 2
25 16 14
25 17 7
25 18 12
25 19 8
25 20 7
25 21 3
25 22 5
25 23 10
25 24 6
26 0 3
26 1 1
26 2 10
26 3 11
26 4 13
26 5 8
26 6 2
26 7 12
26 8 8
26 9 9
26 10 11
26 11 5
26 12 5
26 13 10
26 14 11
26 15 15
26 16 12
26 17 2
26 18 3
26 19 2
26 20 2
26 21 1
26 22 3
26 23 7
26 24 13
26 25 6
27 0 2
27 1 4
27 2 6
27 3 3
27 4 9
27 5 7
27 6 13
27 7 12
27 8 3
27 9 6
27 10 15
27 11 11
27 12 14
27 13 15
27 14 11
27 15 14
27 16 1
27 17 14
27 18 6
27 19 9
27 20 8
27 21 8
27 22 14
27 23 11
27 24 12
27 25 13
27 26 8
28 0 11
28 1 3
28 2 5
28 3 8
28 4 11
28 5 6
28 6 2
28 7 12
28 8 4
28 9 6
28 10 9
28 11 9
28 12 13
28 13 4
28 14 1
28 15 10
28 16 10
28 17 9
28 18 14
28 19 13
28 20 4
28 21 6
28 22 10
28 23 15
28 24 13
28 25 8
28 26 13
28 27 15
29 0 7
29 1 9
29 2 4
29 3 4
29 4 6
29 5 7
29 6 12
29 7 9
29 8 3
29 9 2
29 10 13
29 11 1
29 12 12
29 13 6
29 14 15
29 15 1
29 16 14
29 17 3
29 18 6
29 19 2
29 20 10
29 21 15
29 22 9
29 23 14
29 24 4
29 25 12
29 26 12
29 27 5
29 28 7
30 0 6
30 1 13
30 2 5
30 3 3
30 4 3
30 5 9
30 6 12
30 7 5
30 8 10
30 9 3
30 10 8
30 11 13
30 12 5
30 13 5
30 14 11
30 15 2
30 16 13
30 17 15
30 18 7
30 19 14
30 20 9
30 21 14
30 22 13
30 23 7
30 24 14
30 25 5
30 26 3
30 27 7
30 28 11
30 29 15
31 0 14
31 1 11
31 2 3
31 3 6
31 4 2
31 5 12
31 6 12
31 7 12
31 8 6
31 9 3
31 10 11
31 11 14
31 12 10
31 13 9
31 14 13
31 15 7
31 16 5
31 17 3
31 18 12
31 19 8
31 20 11
31 21 15
31 22 12
31 23 2
31 24 14
31 25 5
31 26 4
31 27 8
31 28 11
31 29 1
31 30 15
32 0 12
32 1 8
32 2 10
32 3 2
32 4 2
32 5 8
32 6 12
32 7 12
32 8 3
32 9 14
32 10 5
32 11 15
32 12 12
32 13 4
32 14 3
32 15 11
32 16 9
32 17 10
32 18 6
32 19 9
32 20 2
32 21 5
32 22 12
32 23 14
32 24 9
32 25 12
32 26 14
32 27 4
32 28 4
32 29 2
32 30 6
32 31 12
33 0 11
33 1 11
33 2 10
33 3 15
33 4 1
33 5 13
33 6 15
33 7 9
33 8 1
33 9 7
33 10 7
33 11 5
33 12 1
33 13 10
33 14 6
33 15 3
33 16 11
33 17 1
33 18 14
33 19 10
33 20 15
33 21 1
33 22 8
33 23 5
33 24 5
33 25 1
33 26 13
33 27 9
33 28 11
33 29 1
33 30 13
33 31 14
33 32 5
34 0 8
34 1 3
34 2 13
34 3 9
34 4 11
34 5 2
34 6 1
34 7 5
34 8 15
34 9 7
34 10 10
34 11 11
34 12 4
34 13 5
34 14 5
34 15 4
34 16 3
34 17 13
34 18 1
34 19 5
34 20 8
34 21 6
34 22 2
34 23 9
34 24 1
34 25 10
34 26 6
34 27 5
34 28 15
34 29 4
34 30 4
34 31 5
34 32 1
34 33 8
35 0 15
35 1 9
35 2 4
35 3 11
35 4 4
35 5 15
35 6 1
35 7 2
35 8 7
35 9 8
35 10 1
35 11 8
35 12 6
35 13 9
35 14 9
35 15 5
35 16 5
35 17 7
35 18 15
35 19 4
35 20 1
35 21 7
35 22 6
35 23 14
35 24 12
35 25 15
35 26 14
35 27 14
35 28 5
35 29 14
35 30 5
35 31 2
35 32 4
35 33 8
35 34 15
36 0 3
36 1 5
36 2 4
36 3 4
36 4 5
36 5 10
36 6 1
36 7 6
36 8 2
36 9 12
36 10 15
36 11 7
36 12 9
36 13 12
36 14 14
36 15 11
36 16 4
36 17 2
36 18 9
36 19 11
36 20 6
36 21 9
36 22 14
36 23 13
36 24 11
36 25 15
36 26 14
36 27 11
36 28 11
36 29 12
36 30 11
36 31 9
36 32 6
36 33 10
36 34 12
36 35 5
37 0 5
37 1 1
37 2 2
37 3 7
37 4 11
37 5 8
37 6 14
37 7 5
37 8 5
37 9 10
37 10 9
37 11 14
37 12 13
37 13 15
37 14 10
37 15 8
37 16 6
37 17 13
37 18 4
37 19 9
37 20 4
37 21 4
37 22 11
37 23 10
37 24 6
37 25 12
37 26 9
37 27 5
37 28 5
37 29 1
37 30 8
37 31 3
37 32 14
37 33 3
37 34 13
37 35 1
37 36 2
38 0 3
38 1 3
38 2 8
38 3 11
38 4 3
38 5 1
38 6 7
38 7 10
38 8 1
38 9 8
38 10 6
38 11 10
38 12 11
38 13 12
38 14 7
38 15 4
38 16 9
38 17 10
38 18 6
38 19 15
38 20 1
38 21 8
38 22 11
38 23 7
38 24 1
38 25 4
38 26 2
38 27 6
38 28 14
38 29 10
38 30 4
38 31 15
38 32 2
38 33 14
38 34 2
38 35 11
38 36 13
38 37 8
39 0 2
39 1 1
39 2 12
39 3 15
39 4 1
39 5 11
39 6 13
39 7 7
39 8 11
39 9 7
39 10 1
39 11 15
39 12 10
39 13 14
39 14 9
39 15 4
39 16 6
39 17 15
39 18 12
39 19 7
39 20 4
39 21 15
39 22 15
39 23 10
39 24 1
39 25 1
39 26 6
39 27 13
39 28 4
39 29 13
39 30 8
39 31 15
39 32 9
39 33 2
39 34 8
39 35 8
39 36 13
39 37 13
39 38 5
40 0 4
40 1 6
40 2 14
40 3 8
40 4 6
40 5 15
40 6 11
40 7 9
40 8 15
40 9 9
40 10 14
40 11 6
40 12 10
40 13 2
40 14 11
40 15 11
40 16 9
40 17 15
40 18 10
40 19 8
40 20 9
40 21 2
40 22 15
40 23 10
40 24 9
40 25 2
40 26 12
40 27 1
40 28 15
40 29 7
40 30 7
40 31 14
40 32 9
40 33 14
40 34 14
40 35 9
40 36 8
40 37 15
40 38 12
40 39 9
41 0 8
41 1 13
41 2 2
41 3 14
41 4 6
41 5 6
41 6 12
41 7 13
41 8 3
41 9 12
41 10 6
41 11 13
41 12 9
41 13 5
41 14 12
41 15 4
41 16 10
41 17 1
41 18 1
41 19 4
41 20 15
41 21 8
41 22 3
41 23 5
41 24 3
41 25 12
41 26 9
41 27 3
41 28 13
41 29 5
41 30 12
41 31 9
41 32 7
41 33 11
41 34 11
41 35 13
41 36 9
41 37 7
41 38 11
41 39 14
41 40 2
42 0 2
42 1 9
42 2 7
42 3 4
42 4 11
42 5 6
42 6 3
42 7 11
42 8 6
42 9 15
42 10 14
42 11 15
42 12 3
42 13 12
42 14 3
42 15 9
42 16 4
42 17 9
42 18 2
42 19 4
42 20 15
42 21 13
42 22 5
42 23 4
42 24 4
42 25 14
42 26 14
42 27 9
42 28 5
42 29 5
42 30 2
42 31 7
42 32 2
42 33 8
42 34 10
42 35 7
42 36 1
42 37 6
42 38 8
42 39 14
42 40 11
42 41 2
43 0 4
43 1 7
43 2 2
43 3 12
43 4 6
43 5 15
43 6 12
43 7 9
43 8 13
43 9 10
43 10 6
43 11 9
43 12 4
43 13 6
43 14 14
43 15 9
43 16 7
43 17 5
43 18 1
43 19 2
43 20 12
43 21 6
43 22 2
43 23 4
43 24 11
43 25 3
43 26 9
43 27 14
43 28 2
43 29 1
43 30 10
43 31 8
43 32 8
43 33 1
43 34 9
43 35 3
43 36 15
43 37 8
43 38 14
43 39 3
43 40 2
43 41 10
43 42 6
44 0 3
44 1 15
44 2 10
44 3 14
44 4 14
44 5 6
44 6 7
44 7 5
44 8 3
44 9 4
44 10 12
44 11 4
44 12 15
44 13 8
44 14 3
44 15 11
44 16 15
44 17 9
44 18 10
44 19 11
44 20 12
44 21 12
44 22 12
44 23 12
44 24 11
44 25 10
44 26 8
44 27 14
44 28 4
44 29 10
44 30 3
44 31 15
44 32 13
44 33 2
44 34 4
44 35 5
44 36 1
44 37 9
44 38 7
44 39 7
44 40 9
44 41 6
44 42 3
44 43 5
45 0 4
45 1 3
45 2 13
45 3 12
45 4 6
45 5 8
45 6 5
45 7 10
45 8 7
45 9 9
45 10 15
45 11 14
45 12 5
45 13 10
45 14 6
45 15 6
45 16 1
45 17 11
45 18 5
45 19 10
45 20 10
45 21 9
45 22 13
45 23 2
45 24 13
45 25 11
45 26 1
45 27 9
45 28 8
45 29 4
45 30 12
45 31 1
45 32 15
45 33 12
45 34 4
45 35 6
45 36 1
45 37 9
45 38 9
45 39 5
45 40 14
45 41 6
45 42 14
45 43 3
45 44 13
46 0 14
46 1 3
46 2 12
46 3 5
46 4 11
46 5 11
46 6 4
46 7 15
46 8 12
46 9 13
46 10 6
46 11 7
46 12 15
46 13 1
46 14 13
46 15 2
46 16 11
46 17 1
46 18 3
46 19 12
46 20 14
46 21 10
46 22 8
46 23 3
46 24 13
46 25 8
46 26 5
46 27 13
46 28 10
46 29 5
46 30 6
46 31 8
46 32 9
46 33 5
46 34 5
46 35 5
46 36 3
46 37 6
46 38 9
46 39 5
46 40 12
46 41 8
46 42 12
46 43 15
46 44 8
46 45 11
47 0 9
47 1 2
47 2 4
47 3 6
47 4 12
47 5 14
47 6 7
47 7 7
47 8 13
47 9 5
47 10 10
47 11 6
47 12 11
47 13 1
47 14 14
47 15 1
47 16 5
47 17 14
47 18 8
47 19 1
47 20 7
47 21 7
47 22 15
47 23 6
47 24 2
47 25 12
47 26 3
47 27 1
47 28 1
47 29 15
47 30 3
47 31 11
47 32 4
47 33 9
47 34 8
47 35 7
47 36 2
47 37 8
47 38 2
47 39 4
47 40 7
47 41 10
47 42 1
47 43 2
47 44 8
47 45 13
47 46 1
48 0 3
48 1 15
48 2 4
48 3 4
48 4 7
48 5 9
48 6 11
48 7 4
48 8 5
48 9 10
48 10 1
48 11 13
48 12 15
48 13 13
48 14 10
48 15 4
48 16 8
48 17 14
48 18 7
48 19 13
48 20 9
48 21 3
48 22 13
48 23 3
48 24 5
48 25 10
48 26 13
48 27 13
48 28 7
48 29 7
48 30 3
48 31 7
48 32 12
48 33 10
48 34 8
48 35 6
48 36 9
48 37 13
48 38 9
48 39 3
48 40 1
48 41 12
48 42 9
48 43 7
48 44 14
48 45 7
48 46 10
48 47 1
49 0 6
49 1 2
49 2 4
49 3 5
49 4 8
49 5 7
49 6 6
49 7 2
49 8 6
49 9 6
49 10 11
49 11 10
49 12 15
49 13 9
49 14 10
49 15 14
49 16 8
49 17 13
49 18 8
49 19 4
49 20 12
49 21 7
49 22 10
49 23 3
49 24 11
49 25 12
49 26 13
49 27 15
49 28 3
49 29 4
49 30 9
49 31 8
49 32 10
49 33 5
49 34 9
49 35 14
49 36 14
49 37 7
49 38 15
49 39 4
49 40 15
49 41 4
49 42 12
49 43 2
49 44 6
49 45 15
49 46 14
49 47 4
49 48 9
50 0 14
50 1 3
50 2 14
50 3 12
50 4 10
50 5 15
50 6 2
50 7 9
50 8 4
50 9 4
50 10 12
50 11 10
50 12 5
50 13 2
50 14 15
50 15 11
50 16 11
50 17 3
50 18 8
50 19 3
50 20 8
50 21 15
50 22 7
50 23 11
50 24 9
50 25 2
50 26 6
50 27 7
50 28 6
50 29 9
50 30 15
50 31 15
50 32 12
50 33 9
50 34 4
50 35 10
50 36 3
50 37 5
50 38 7
50 39 11
50 40 10
50 41 10
50 42 13
50 43 13
50 44 7
50 45 14
50 46 13
50 47 4
50 48 12
50 49 3
51 0 9
51 1 15
51 2 6
51 3 6
51 4 9
51 5 3
51 6 12
51 7 11
51 8 9
51 9 6
51 10 13
51 11 7
51 12 14
51 13 7
51 14 7
51 15 4
51 16 3
51 17 3
51 18 3
51 19 15
51 20 6
51 21 10
51 22 13
51 23 2
51 24 10
51 25 8
51 26 7
51 27 1
51 28 15
51 29 7
51 30 15
51 31 14
51 32 7
51 33 3
51 34 11
51 35 3
51 36 9
51 37 3
51 38 7
51 39 5
51 40 10
51 41 1
51 42 8
51 43 13
51 44 14
51 45 14
51 46 12
51 47 2
51 48 15
51 49 1
51 50 7
52 0 6
52 1 15
52 2 12
52 3 2
52 4 7
52 5 13
52 6 4
52 7 15
52 8 15
52 9 12
52 10 4
52 11 6
52 12 8
52 13 7
52 14 14
52 15 2
52 16 2
52 17 11
52 18 2
52 19 5
52 20 4
52 21 15
52 22 12
52 23 15
52 24 8
52 25 6
52 26 6
52 27 15
52 28 14
52 29 14
52 30 14
52 31 8
52 32 15
52 33 6
52 34 9
52 35 10
52 36 15
52 37 12
52 38 2
52 39 3
52 40 12
52 41 8
52 42 3
52 43 7
52 44 13
52 45 2
52 46 15
52 47 6
52 48 5
52 49 6
52 50 11
52 51 11
53 0 9
53 1 2
53 2 14
53 3 3
53 4 14
53 5 1
53 6 6
53 7 8
53 8 3
53 9 3
53 10 6
53 11 1
53 12 7
53 13 2
53 14 10
53 15 15
53 16 2
53 17 4
53 18 5
53 19 4
53 20 7
53 21 15
53 22 13
53 23 7
53 24 9
53 25 5
53 26 13
53 27 5
53 28 1
53 29 12
53 30 11
53 31 8
53 32 7
53 33 5
53 34 10
53 35 1
53 36 6
53 37 11
53 38 12
53 39 8
53 40 6
53 41 4
53 42 8
53 43 9
53 44 12
53 45 10
53 46 12
53 47 15
53 48 2
53 49 2
53 50 15
53 51 2
53 52 9
54 0 7
54 1 12
54 2 5
54 3 9
54 4 7
54 5 13
54 6 10
54 7 3
54 8 10
54 9 6
54 10 8
54 11 14
54 12 2
54 13 8
54 14 2
54 15 4
54 16 9
54 17 3
54 18 11
54 19 4
54 20 11
54 21 12
54 22 2
54 23 10
54 24 7
54 25 6
54 26 4
54 27 10
54 28 14
54 29 11
54 30 6
54 31 4
54 32 1
54 33 14
54 34 6
54 35 13
54 36 6
54 37 5
54 38 4
54 39 1
54 40 11
54 41 6
54 42 2
54 43 7
54 44 5
54 45 2
54 46 2
54 47 14
54 48 4
54 49 2
54 50 11
54 51 10
54 52 15
54 53 4
55 0 13
55 1 5
55 2 5
55 3 5
55 4 2
55 5 7
55 6 9
55 7 1
55 8 6
55 9 7
55 10 6
55 11 8
55 12 10
55 13 13
55 14 1
55 15 13
55 16 15
55 17 15
55 18 7
55 19 6
55 20 2
55 21 15
55 22 4
55 23 10
55 24 10
55 25 4
55 26 5
55 27 13
55 28 15
55 29 15
55 30 9
55 31 9
55 32 13
55 33 13
55 34 3
55 35 7
55 36 12
55 37 15
55 38 4
55 39 9
55 40 7
55 41 12
55 42 8
55 43 7
55 44 13
55 45 9
55 46 2
55 47 3
55 48 7
55 49 15
55 50 14
55 51 5
55 52 6
55 53 13
55 54 12
56 0 1
56 1 2
56 2 7
56 3 11
56 4 2
56 5 6
56 6 7
56 7 7
56 8 10
56 9 10
56 10 8
56 11 10
56 12 5
56 13 7
56 14 3
56 15 9
56 16 2
56 17 4
56 18 4
56 19 4
56 20 4
56 21 14
56 22 9
56 23 8
56 24 12
56 25 8
56 26 5
56 27 15
56 28 12
56 29 4
56 30 4
56 31 10
56 32 12
56 33 13
56 34 8
56 35 14
56 36 9
56 37 13
56 38 11
56 39 13
56 40 1
56 41 14
56 42 9
56 43 11
56 44 10
56 45 10
56 46 1
56 47 11
56 48 14
56 49 6
56 50 9
56 51 1
56 52 6
56 53 9
56 54 7
56 55 5
57 0 8
57 1 1
57 2 8
57 3 7
57 4 1
57 5 7
57 6 4
57 7 6
57 8 5
57 9 5
57 10 1
57 11 15
57 12 11
57 13 15
57 14 9
57 15 9
57 16 14
57 17 15
57 18 11
57 19 9
57 20 7
57 21 5
57 22 4
57 23 9
57 24 7
57 25 6
57 26 8
57 27 8
57 28 4
57 29 5
57 30 10
57 31 3
57 32 4
57 33 8
57 34 7
57 35 7
57 36 1
57 37 11
57 38 15
57 39 12
57 40 6
57 41 5
57 42 10
57 43 12
57 44 5
57 45 12
57 46 13
57 47 7
57 48 9
57 49 14
57 50 2
57 51 15
57 52 2
57 53 12
57 54 12
57 55 2
57 56 4
58 0 15
58 1 9
58 2 4
58 3 9
58 4 10
58 5 14
58 6 3
58 7 11
58 8 10
58 9 7
58 10 2
58 11 13
58 12 5
58 13 11
58 14 12
58 15 12
58 16 14
58 17 2
58 18 4
58 19 2
58 20 4
58 21 10
58 22 14
58 23 13
58 24 10
58 25 7
58 26 1
58 27 8
58 28 3
58 29 13
58 30 4
58 31 4
58 32 15
58 33 11
58 34 5
58 35 6
58 36 14
58 37 4
58 38 5
58 39 11
58 40 4
58 41 11
58 42 5
58 43 9
58 44 13
58 45 2
58 46 13
58 47 10
58 48 2
58 49 6
58 50 3
58 51 10
58 52 2
58 53 6
58 54 11
58 55 7
58 56 15
58 57 4
59 0 2
59 1 5
59 2 8
59 3 2
59 4 2
59 5 12
59 6 13
59 7 1
59 8 13
59 9 15
59 10 1
59 11 1
59 12 3
59 13 7
59 14 7
59 15 4
59 16 4
59 17 9
59 18 12
59 19 6
59 20 10
59 21 14
59 22 5
59 23 13
59 24 14
59 25 10
59 26 6
59 27 1
59 28 9
59 29 11
59 30 2
59 31 3
59 32 15
59 33 14
59 34 8
59 35 12
59 36 7
59 37 15
59 38 6
59 39 3
59 40 1
59 41 11
59 42 3
59 43 8
59 44 13
59 45 5
59 46 13
59 47 2
59 48 3
59 49 12
59 50 3
59 51 6
59 52 2
59 53 1
59 54 2
59 55 6
59 56 14
59 57 15
59 58 2
60 0 8
60 1 12
60 2 1
60 3 5
60 4 11
60 5 13
60 6 15
60 7 9
60 8 14
60 9 3
60 10 6
60 11 7
60 12 6
60 13 7
60 14 6
60 15 3
60 16 7
60 17 2
60 18 8
60 19 13
60 20 9
60 21 14
60 22 10
60 23 5
60 24 12
60 25 9
60 26 7
60 27 15
60 28 12
60 29 10
60 30 15
60 31 1
60 32 4
60 33 2
60 34 3
60 35 9
60 36 12
60 37 15
60 38 2
60 39 14
60 40 7
60 41 5
60 42 2
60 43 7
60 44 13
60 45 12
60 46 15
60 47 6
60 48 12
60 49 9
60 50 14
60 51 8
60 52 2
60 53 11
60 54 5
60 55 7
60 56 3
60 57 10
60 58 8
60 59 12
61 0 8
61 1 13
61 2 7
61 3 1
61 4 14
61 5 1
61 6 14
61 7 5
61 8 11
61 9 3
61 10 6
61 11 8
61 12 4
61 13 5
61 14 10
61 15 2
61 16 9
61 17 11
61 18 8
61 19 7
61 20 7
61 21 1
61 22 4
61 23 15
61 24 13
61 25 11
61 26 1
61 27 5
61 28 8
61 29 15
61 30 12
61 31 8
61 32 3
61 33 7
61 34 14
61 35 4
61 36 6
61 37 13
61 38 10
61 39 1
61 40 5
61 41 11
61 42 4
61 43 13
61 44 9
61 45 1
61 46 7
61 47 4
61 48 11
61 49 3
61 50 6
61 51 8
61 52 10
61 53 4
61 54 5
61 55 7
61 56 8
61 57 12
61 58 14
61 59 13
61 60 12
62 0 11
62 1 4
62 2 1
62 3 9
62 4 5
62 5 12
62 6 1
62 7 11
62 8 14
62 9 6
62 10 12
62 11 4
62 12 9
62 13 13
62 14 5
62 15 14
62 16 4
62 17 11
62 18 2
62 19 11
62 20 5
62 21 4
62 22 8
62 23 14
62 24 7
62 25 2
62 26 7
62 27 9
62 28 15
62 29 6
62 30 13
62 31 10
62 32 6
62 33 5
62 34 10
62 35 13
62 36 9
62 37 7
62 38 6
62 39 8
62 40 9
62 41 13
62 42 2
62 43 14
62 44 9
62 45 5
62 46 15
62 47 7
62 48 3
62 49 12
62 50 5
62 51 7
62 52 3
62 53 7
62 54 2
62 55 8
62 56 5
62 57 15
62 58 12
62 59 8
62 60 6
62 61 4
